50

99 46 157
95 48 219
93 6 160
92 27 241
91 25 171
89 35 274
89 12 154
88 26 228
88 21 241
85 11 255
84 24 218
84 14 141
84 5 258
80 9 279
80 17 186
79 9 273
77 16 195
76 28 156
72 33 220
69 19 181
65 10 296
64 2 295
64 0 143
63 1 178
63 8 298
60 27 244
56 25 289
56 10 202
53 19 211
53 19 275
52 21 271
51 6 300
50 12 264
50 7 158
49 11 166
49 19 200
47 19 258
44 5 160
41 15 141
41 12 267
40 0 215
40 5 168
40 15 176
35 1 300
35 14 249
34 0 283
32 10 279
31 16 198
31 16 279
30 1 271
